
;this file is automatically generated: Wed Apr 21 11:03:31 CST 2021

;declarations generated

(declare-fun oclExcludes ( Int Int) Bool)
(declare-fun Cardinality ( Int) Int)
(declare-fun class33_Class33IntAttr0 ( Int) Int)
(declare-fun obj_f081e361_dd11_41a2_a2d4_3e3935296a02 ( Int) Int)
(declare-fun type_aaa5b59b_245b_4ddb_8fbd_8f5fc6453aaa_Class25 ( Int) Bool)
(declare-fun type_aaa5b59b_245b_4ddb_8fbd_8f5fc6453aaa_Class24 ( Int) Bool)
(declare-fun type_aaa5b59b_245b_4ddb_8fbd_8f5fc6453aaa_Class27 ( Int) Bool)
(declare-fun type_aaa5b59b_245b_4ddb_8fbd_8f5fc6453aaa_Class26 ( Int) Bool)
(declare-fun type_aaa5b59b_245b_4ddb_8fbd_8f5fc6453aaa_Class29 ( Int) Bool)
(declare-fun type_aaa5b59b_245b_4ddb_8fbd_8f5fc6453aaa_Class28 ( Int) Bool)
(declare-fun type_aaa5b59b_245b_4ddb_8fbd_8f5fc6453aaa_Class30 ( Int) Bool)
(declare-fun type_aaa5b59b_245b_4ddb_8fbd_8f5fc6453aaa_Class32 ( Int) Bool)
(declare-fun type_aaa5b59b_245b_4ddb_8fbd_8f5fc6453aaa_Class31 ( Int) Bool)
(declare-fun type_aaa5b59b_245b_4ddb_8fbd_8f5fc6453aaa_Class34 ( Int) Bool)
(declare-fun type_aaa5b59b_245b_4ddb_8fbd_8f5fc6453aaa_Class33 ( Int) Bool)
(declare-fun type_aaa5b59b_245b_4ddb_8fbd_8f5fc6453aaa_Class14 ( Int) Bool)
(declare-fun type_aaa5b59b_245b_4ddb_8fbd_8f5fc6453aaa_Class13 ( Int) Bool)
(declare-fun type_aaa5b59b_245b_4ddb_8fbd_8f5fc6453aaa_Class16 ( Int) Bool)
(declare-fun type_aaa5b59b_245b_4ddb_8fbd_8f5fc6453aaa_Class15 ( Int) Bool)
(declare-fun type_aaa5b59b_245b_4ddb_8fbd_8f5fc6453aaa_Class18 ( Int) Bool)
(declare-fun type_aaa5b59b_245b_4ddb_8fbd_8f5fc6453aaa_Class17 ( Int) Bool)
(declare-fun type_aaa5b59b_245b_4ddb_8fbd_8f5fc6453aaa_Class19 ( Int) Bool)
(declare-fun type_aaa5b59b_245b_4ddb_8fbd_8f5fc6453aaa_Class21 ( Int) Bool)
(declare-fun type_aaa5b59b_245b_4ddb_8fbd_8f5fc6453aaa_Class20 ( Int) Bool)
(declare-fun type_aaa5b59b_245b_4ddb_8fbd_8f5fc6453aaa_Class23 ( Int) Bool)
(declare-fun type_aaa5b59b_245b_4ddb_8fbd_8f5fc6453aaa_Class22 ( Int) Bool)
(declare-fun type_aaa5b59b_245b_4ddb_8fbd_8f5fc6453aaa_Class47 ( Int) Bool)
(declare-fun type_aaa5b59b_245b_4ddb_8fbd_8f5fc6453aaa_Class46 ( Int) Bool)
(declare-fun type_aaa5b59b_245b_4ddb_8fbd_8f5fc6453aaa_Class49 ( Int) Bool)
(declare-fun type_aaa5b59b_245b_4ddb_8fbd_8f5fc6453aaa_Class48 ( Int) Bool)
(declare-fun type_aaa5b59b_245b_4ddb_8fbd_8f5fc6453aaa_Class50 ( Int) Bool)
(declare-fun type_aaa5b59b_245b_4ddb_8fbd_8f5fc6453aaa_Class52 ( Int) Bool)
(declare-fun type_aaa5b59b_245b_4ddb_8fbd_8f5fc6453aaa_Class51 ( Int) Bool)
(declare-fun type_aaa5b59b_245b_4ddb_8fbd_8f5fc6453aaa_Class54 ( Int) Bool)
(declare-fun type_aaa5b59b_245b_4ddb_8fbd_8f5fc6453aaa_Class53 ( Int) Bool)
(declare-fun type_aaa5b59b_245b_4ddb_8fbd_8f5fc6453aaa_Class56 ( Int) Bool)
(declare-fun type_aaa5b59b_245b_4ddb_8fbd_8f5fc6453aaa_Class55 ( Int) Bool)
(declare-fun type_aaa5b59b_245b_4ddb_8fbd_8f5fc6453aaa_Class36 ( Int) Bool)
(declare-fun type_aaa5b59b_245b_4ddb_8fbd_8f5fc6453aaa_Class35 ( Int) Bool)
(declare-fun type_aaa5b59b_245b_4ddb_8fbd_8f5fc6453aaa_Class38 ( Int) Bool)
(declare-fun type_aaa5b59b_245b_4ddb_8fbd_8f5fc6453aaa_Class37 ( Int) Bool)
(declare-fun type_aaa5b59b_245b_4ddb_8fbd_8f5fc6453aaa_Class39 ( Int) Bool)
(declare-fun oclSelect ( Int Bool) Int)
(declare-fun type_aaa5b59b_245b_4ddb_8fbd_8f5fc6453aaa_Class41 ( Int) Bool)
(declare-fun type_aaa5b59b_245b_4ddb_8fbd_8f5fc6453aaa_Class40 ( Int) Bool)
(declare-fun type_aaa5b59b_245b_4ddb_8fbd_8f5fc6453aaa_Class43 ( Int) Bool)
(declare-fun type_aaa5b59b_245b_4ddb_8fbd_8f5fc6453aaa_Class42 ( Int) Bool)
(declare-fun type_aaa5b59b_245b_4ddb_8fbd_8f5fc6453aaa_Class45 ( Int) Bool)
(declare-fun type_aaa5b59b_245b_4ddb_8fbd_8f5fc6453aaa_Class44 ( Int) Bool)
(declare-fun type_aaa5b59b_245b_4ddb_8fbd_8f5fc6453aaa_Class8 ( Int) Bool)
(declare-fun type_aaa5b59b_245b_4ddb_8fbd_8f5fc6453aaa_Class9 ( Int) Bool)
(declare-fun type_aaa5b59b_245b_4ddb_8fbd_8f5fc6453aaa_Class6 ( Int) Bool)
(declare-fun type_aaa5b59b_245b_4ddb_8fbd_8f5fc6453aaa_Class7 ( Int) Bool)
(declare-fun type_aaa5b59b_245b_4ddb_8fbd_8f5fc6453aaa_Class0 ( Int) Bool)
(declare-fun type_aaa5b59b_245b_4ddb_8fbd_8f5fc6453aaa_Class1 ( Int) Bool)
(declare-fun type_aaa5b59b_245b_4ddb_8fbd_8f5fc6453aaa_Class4 ( Int) Bool)
(declare-fun type_aaa5b59b_245b_4ddb_8fbd_8f5fc6453aaa_Class5 ( Int) Bool)
(declare-fun type_aaa5b59b_245b_4ddb_8fbd_8f5fc6453aaa_Class2 ( Int) Bool)
(declare-fun type_aaa5b59b_245b_4ddb_8fbd_8f5fc6453aaa_Class3 ( Int) Bool)
(declare-fun type_aaa5b59b_245b_4ddb_8fbd_8f5fc6453aaa_Class10 ( Int) Bool)
(declare-fun type_aaa5b59b_245b_4ddb_8fbd_8f5fc6453aaa_Class12 ( Int) Bool)
(declare-fun type_aaa5b59b_245b_4ddb_8fbd_8f5fc6453aaa_Class11 ( Int) Bool)
(declare-fun Enum0 ( Int) Int)
(declare-fun Enum1 ( Int) Int)
(declare-fun Enum2 ( Int) Int)
(declare-fun container_ ( Int) Int)
(declare-fun oclIncludes ( Int Int) Bool)
(declare-fun ObjAt ( Int Int) Int)

;formula(s) generated
(assert (! (forall ((c1 Int)) (=> (and ( type_aaa5b59b_245b_4ddb_8fbd_8f5fc6453aaa_Class33 c1 )  ( type_aaa5b59b_245b_4ddb_8fbd_8f5fc6453aaa_Class15 c1 ) ) (>= ( class33_Class33IntAttr0 ( obj_f081e361_dd11_41a2_a2d4_3e3935296a02 c1 )  )  18))):named l0))
(assert (! (exists ((o Int)) (and (and (and (and (and (and ( type_aaa5b59b_245b_4ddb_8fbd_8f5fc6453aaa_Class0 ( obj_f081e361_dd11_41a2_a2d4_3e3935296a02 o )  )  ( type_aaa5b59b_245b_4ddb_8fbd_8f5fc6453aaa_Class44 ( obj_f081e361_dd11_41a2_a2d4_3e3935296a02 o )  ) ) ( type_aaa5b59b_245b_4ddb_8fbd_8f5fc6453aaa_Class36 ( obj_f081e361_dd11_41a2_a2d4_3e3935296a02 o )  ) ) ( type_aaa5b59b_245b_4ddb_8fbd_8f5fc6453aaa_Class35 ( obj_f081e361_dd11_41a2_a2d4_3e3935296a02 o )  ) ) ( type_aaa5b59b_245b_4ddb_8fbd_8f5fc6453aaa_Class27 ( obj_f081e361_dd11_41a2_a2d4_3e3935296a02 o )  ) ) ( type_aaa5b59b_245b_4ddb_8fbd_8f5fc6453aaa_Class15 ( obj_f081e361_dd11_41a2_a2d4_3e3935296a02 o )  ) ) ( type_aaa5b59b_245b_4ddb_8fbd_8f5fc6453aaa_Class28 ( obj_f081e361_dd11_41a2_a2d4_3e3935296a02 o )  ) )):named c0))
(assert (! (exists ((o Int)) ( type_aaa5b59b_245b_4ddb_8fbd_8f5fc6453aaa_Class1 ( obj_f081e361_dd11_41a2_a2d4_3e3935296a02 o )  ) ):named c1))
(assert (! (exists ((o Int)) (and (and ( type_aaa5b59b_245b_4ddb_8fbd_8f5fc6453aaa_Class10 ( obj_f081e361_dd11_41a2_a2d4_3e3935296a02 o )  )  ( type_aaa5b59b_245b_4ddb_8fbd_8f5fc6453aaa_Class15 ( obj_f081e361_dd11_41a2_a2d4_3e3935296a02 o )  ) ) ( type_aaa5b59b_245b_4ddb_8fbd_8f5fc6453aaa_Class21 ( obj_f081e361_dd11_41a2_a2d4_3e3935296a02 o )  ) )):named c2))
(assert (! (exists ((o Int)) ( type_aaa5b59b_245b_4ddb_8fbd_8f5fc6453aaa_Class11 ( obj_f081e361_dd11_41a2_a2d4_3e3935296a02 o )  ) ):named c3))
(assert (! (exists ((o Int)) (and (and ( type_aaa5b59b_245b_4ddb_8fbd_8f5fc6453aaa_Class12 ( obj_f081e361_dd11_41a2_a2d4_3e3935296a02 o )  )  ( type_aaa5b59b_245b_4ddb_8fbd_8f5fc6453aaa_Class33 ( obj_f081e361_dd11_41a2_a2d4_3e3935296a02 o )  ) ) ( type_aaa5b59b_245b_4ddb_8fbd_8f5fc6453aaa_Class15 ( obj_f081e361_dd11_41a2_a2d4_3e3935296a02 o )  ) )):named c4))
(assert (! (exists ((o Int)) ( type_aaa5b59b_245b_4ddb_8fbd_8f5fc6453aaa_Class13 ( obj_f081e361_dd11_41a2_a2d4_3e3935296a02 o )  ) ):named c5))
(assert (! (exists ((o Int)) (and (and (and (and (and (and ( type_aaa5b59b_245b_4ddb_8fbd_8f5fc6453aaa_Class14 ( obj_f081e361_dd11_41a2_a2d4_3e3935296a02 o )  )  ( type_aaa5b59b_245b_4ddb_8fbd_8f5fc6453aaa_Class36 ( obj_f081e361_dd11_41a2_a2d4_3e3935296a02 o )  ) ) ( type_aaa5b59b_245b_4ddb_8fbd_8f5fc6453aaa_Class35 ( obj_f081e361_dd11_41a2_a2d4_3e3935296a02 o )  ) ) ( type_aaa5b59b_245b_4ddb_8fbd_8f5fc6453aaa_Class27 ( obj_f081e361_dd11_41a2_a2d4_3e3935296a02 o )  ) ) ( type_aaa5b59b_245b_4ddb_8fbd_8f5fc6453aaa_Class9 ( obj_f081e361_dd11_41a2_a2d4_3e3935296a02 o )  ) ) ( type_aaa5b59b_245b_4ddb_8fbd_8f5fc6453aaa_Class15 ( obj_f081e361_dd11_41a2_a2d4_3e3935296a02 o )  ) ) ( type_aaa5b59b_245b_4ddb_8fbd_8f5fc6453aaa_Class28 ( obj_f081e361_dd11_41a2_a2d4_3e3935296a02 o )  ) )):named c6))
(assert (! (exists ((o Int)) ( type_aaa5b59b_245b_4ddb_8fbd_8f5fc6453aaa_Class15 ( obj_f081e361_dd11_41a2_a2d4_3e3935296a02 o )  ) ):named c7))
(assert (! (exists ((o Int)) ( type_aaa5b59b_245b_4ddb_8fbd_8f5fc6453aaa_Class16 ( obj_f081e361_dd11_41a2_a2d4_3e3935296a02 o )  ) ):named c8))
(assert (! (exists ((o Int)) (and (and (and (and (and (and ( type_aaa5b59b_245b_4ddb_8fbd_8f5fc6453aaa_Class17 ( obj_f081e361_dd11_41a2_a2d4_3e3935296a02 o )  )  ( type_aaa5b59b_245b_4ddb_8fbd_8f5fc6453aaa_Class44 ( obj_f081e361_dd11_41a2_a2d4_3e3935296a02 o )  ) ) ( type_aaa5b59b_245b_4ddb_8fbd_8f5fc6453aaa_Class36 ( obj_f081e361_dd11_41a2_a2d4_3e3935296a02 o )  ) ) ( type_aaa5b59b_245b_4ddb_8fbd_8f5fc6453aaa_Class35 ( obj_f081e361_dd11_41a2_a2d4_3e3935296a02 o )  ) ) ( type_aaa5b59b_245b_4ddb_8fbd_8f5fc6453aaa_Class27 ( obj_f081e361_dd11_41a2_a2d4_3e3935296a02 o )  ) ) ( type_aaa5b59b_245b_4ddb_8fbd_8f5fc6453aaa_Class15 ( obj_f081e361_dd11_41a2_a2d4_3e3935296a02 o )  ) ) ( type_aaa5b59b_245b_4ddb_8fbd_8f5fc6453aaa_Class28 ( obj_f081e361_dd11_41a2_a2d4_3e3935296a02 o )  ) )):named c9))
(assert (! (exists ((o Int)) ( type_aaa5b59b_245b_4ddb_8fbd_8f5fc6453aaa_Class18 ( obj_f081e361_dd11_41a2_a2d4_3e3935296a02 o )  ) ):named c10))
(assert (! (exists ((o Int)) (and (and (and (and (and (and ( type_aaa5b59b_245b_4ddb_8fbd_8f5fc6453aaa_Class19 ( obj_f081e361_dd11_41a2_a2d4_3e3935296a02 o )  )  ( type_aaa5b59b_245b_4ddb_8fbd_8f5fc6453aaa_Class36 ( obj_f081e361_dd11_41a2_a2d4_3e3935296a02 o )  ) ) ( type_aaa5b59b_245b_4ddb_8fbd_8f5fc6453aaa_Class35 ( obj_f081e361_dd11_41a2_a2d4_3e3935296a02 o )  ) ) ( type_aaa5b59b_245b_4ddb_8fbd_8f5fc6453aaa_Class27 ( obj_f081e361_dd11_41a2_a2d4_3e3935296a02 o )  ) ) ( type_aaa5b59b_245b_4ddb_8fbd_8f5fc6453aaa_Class9 ( obj_f081e361_dd11_41a2_a2d4_3e3935296a02 o )  ) ) ( type_aaa5b59b_245b_4ddb_8fbd_8f5fc6453aaa_Class15 ( obj_f081e361_dd11_41a2_a2d4_3e3935296a02 o )  ) ) ( type_aaa5b59b_245b_4ddb_8fbd_8f5fc6453aaa_Class28 ( obj_f081e361_dd11_41a2_a2d4_3e3935296a02 o )  ) )):named c11))
(assert (! (exists ((o Int)) (and (and (and (and (and (and ( type_aaa5b59b_245b_4ddb_8fbd_8f5fc6453aaa_Class2 ( obj_f081e361_dd11_41a2_a2d4_3e3935296a02 o )  )  ( type_aaa5b59b_245b_4ddb_8fbd_8f5fc6453aaa_Class36 ( obj_f081e361_dd11_41a2_a2d4_3e3935296a02 o )  ) ) ( type_aaa5b59b_245b_4ddb_8fbd_8f5fc6453aaa_Class35 ( obj_f081e361_dd11_41a2_a2d4_3e3935296a02 o )  ) ) ( type_aaa5b59b_245b_4ddb_8fbd_8f5fc6453aaa_Class27 ( obj_f081e361_dd11_41a2_a2d4_3e3935296a02 o )  ) ) ( type_aaa5b59b_245b_4ddb_8fbd_8f5fc6453aaa_Class15 ( obj_f081e361_dd11_41a2_a2d4_3e3935296a02 o )  ) ) ( type_aaa5b59b_245b_4ddb_8fbd_8f5fc6453aaa_Class28 ( obj_f081e361_dd11_41a2_a2d4_3e3935296a02 o )  ) ) ( type_aaa5b59b_245b_4ddb_8fbd_8f5fc6453aaa_Class54 ( obj_f081e361_dd11_41a2_a2d4_3e3935296a02 o )  ) )):named c12))
(assert (! (exists ((o Int)) (and ( type_aaa5b59b_245b_4ddb_8fbd_8f5fc6453aaa_Class20 ( obj_f081e361_dd11_41a2_a2d4_3e3935296a02 o )  )  ( type_aaa5b59b_245b_4ddb_8fbd_8f5fc6453aaa_Class15 ( obj_f081e361_dd11_41a2_a2d4_3e3935296a02 o )  ) )):named c13))
(assert (! (exists ((o Int)) (and ( type_aaa5b59b_245b_4ddb_8fbd_8f5fc6453aaa_Class21 ( obj_f081e361_dd11_41a2_a2d4_3e3935296a02 o )  )  ( type_aaa5b59b_245b_4ddb_8fbd_8f5fc6453aaa_Class15 ( obj_f081e361_dd11_41a2_a2d4_3e3935296a02 o )  ) )):named c14))
(assert (! (exists ((o Int)) (and (and (and ( type_aaa5b59b_245b_4ddb_8fbd_8f5fc6453aaa_Class22 ( obj_f081e361_dd11_41a2_a2d4_3e3935296a02 o )  )  ( type_aaa5b59b_245b_4ddb_8fbd_8f5fc6453aaa_Class15 ( obj_f081e361_dd11_41a2_a2d4_3e3935296a02 o )  ) ) ( type_aaa5b59b_245b_4ddb_8fbd_8f5fc6453aaa_Class48 ( obj_f081e361_dd11_41a2_a2d4_3e3935296a02 o )  ) ) ( type_aaa5b59b_245b_4ddb_8fbd_8f5fc6453aaa_Class43 ( obj_f081e361_dd11_41a2_a2d4_3e3935296a02 o )  ) )):named c15))
(assert (! (exists ((o Int)) ( type_aaa5b59b_245b_4ddb_8fbd_8f5fc6453aaa_Class23 ( obj_f081e361_dd11_41a2_a2d4_3e3935296a02 o )  ) ):named c16))
(assert (! (exists ((o Int)) ( type_aaa5b59b_245b_4ddb_8fbd_8f5fc6453aaa_Class24 ( obj_f081e361_dd11_41a2_a2d4_3e3935296a02 o )  ) ):named c17))
(assert (! (exists ((o Int)) (and (and (and ( type_aaa5b59b_245b_4ddb_8fbd_8f5fc6453aaa_Class25 ( obj_f081e361_dd11_41a2_a2d4_3e3935296a02 o )  )  ( type_aaa5b59b_245b_4ddb_8fbd_8f5fc6453aaa_Class12 ( obj_f081e361_dd11_41a2_a2d4_3e3935296a02 o )  ) ) ( type_aaa5b59b_245b_4ddb_8fbd_8f5fc6453aaa_Class33 ( obj_f081e361_dd11_41a2_a2d4_3e3935296a02 o )  ) ) ( type_aaa5b59b_245b_4ddb_8fbd_8f5fc6453aaa_Class15 ( obj_f081e361_dd11_41a2_a2d4_3e3935296a02 o )  ) )):named c18))
(assert (! (exists ((o Int)) ( type_aaa5b59b_245b_4ddb_8fbd_8f5fc6453aaa_Class26 ( obj_f081e361_dd11_41a2_a2d4_3e3935296a02 o )  ) ):named c19))
(assert (! (exists ((o Int)) (and ( type_aaa5b59b_245b_4ddb_8fbd_8f5fc6453aaa_Class27 ( obj_f081e361_dd11_41a2_a2d4_3e3935296a02 o )  )  ( type_aaa5b59b_245b_4ddb_8fbd_8f5fc6453aaa_Class15 ( obj_f081e361_dd11_41a2_a2d4_3e3935296a02 o )  ) )):named c20))
(assert (! (exists ((o Int)) (and (and ( type_aaa5b59b_245b_4ddb_8fbd_8f5fc6453aaa_Class28 ( obj_f081e361_dd11_41a2_a2d4_3e3935296a02 o )  )  ( type_aaa5b59b_245b_4ddb_8fbd_8f5fc6453aaa_Class27 ( obj_f081e361_dd11_41a2_a2d4_3e3935296a02 o )  ) ) ( type_aaa5b59b_245b_4ddb_8fbd_8f5fc6453aaa_Class15 ( obj_f081e361_dd11_41a2_a2d4_3e3935296a02 o )  ) )):named c21))
(assert (! (exists ((o Int)) (and (and (and (and (and ( type_aaa5b59b_245b_4ddb_8fbd_8f5fc6453aaa_Class29 ( obj_f081e361_dd11_41a2_a2d4_3e3935296a02 o )  )  ( type_aaa5b59b_245b_4ddb_8fbd_8f5fc6453aaa_Class36 ( obj_f081e361_dd11_41a2_a2d4_3e3935296a02 o )  ) ) ( type_aaa5b59b_245b_4ddb_8fbd_8f5fc6453aaa_Class35 ( obj_f081e361_dd11_41a2_a2d4_3e3935296a02 o )  ) ) ( type_aaa5b59b_245b_4ddb_8fbd_8f5fc6453aaa_Class27 ( obj_f081e361_dd11_41a2_a2d4_3e3935296a02 o )  ) ) ( type_aaa5b59b_245b_4ddb_8fbd_8f5fc6453aaa_Class15 ( obj_f081e361_dd11_41a2_a2d4_3e3935296a02 o )  ) ) ( type_aaa5b59b_245b_4ddb_8fbd_8f5fc6453aaa_Class28 ( obj_f081e361_dd11_41a2_a2d4_3e3935296a02 o )  ) )):named c22))
(assert (! (exists ((o Int)) ( type_aaa5b59b_245b_4ddb_8fbd_8f5fc6453aaa_Class3 ( obj_f081e361_dd11_41a2_a2d4_3e3935296a02 o )  ) ):named c23))
(assert (! (exists ((o Int)) (and (and ( type_aaa5b59b_245b_4ddb_8fbd_8f5fc6453aaa_Class30 ( obj_f081e361_dd11_41a2_a2d4_3e3935296a02 o )  )  ( type_aaa5b59b_245b_4ddb_8fbd_8f5fc6453aaa_Class33 ( obj_f081e361_dd11_41a2_a2d4_3e3935296a02 o )  ) ) ( type_aaa5b59b_245b_4ddb_8fbd_8f5fc6453aaa_Class15 ( obj_f081e361_dd11_41a2_a2d4_3e3935296a02 o )  ) )):named c24))
(assert (! (exists ((o Int)) (and (and (and (and (and (and ( type_aaa5b59b_245b_4ddb_8fbd_8f5fc6453aaa_Class31 ( obj_f081e361_dd11_41a2_a2d4_3e3935296a02 o )  )  ( type_aaa5b59b_245b_4ddb_8fbd_8f5fc6453aaa_Class36 ( obj_f081e361_dd11_41a2_a2d4_3e3935296a02 o )  ) ) ( type_aaa5b59b_245b_4ddb_8fbd_8f5fc6453aaa_Class35 ( obj_f081e361_dd11_41a2_a2d4_3e3935296a02 o )  ) ) ( type_aaa5b59b_245b_4ddb_8fbd_8f5fc6453aaa_Class27 ( obj_f081e361_dd11_41a2_a2d4_3e3935296a02 o )  ) ) ( type_aaa5b59b_245b_4ddb_8fbd_8f5fc6453aaa_Class15 ( obj_f081e361_dd11_41a2_a2d4_3e3935296a02 o )  ) ) ( type_aaa5b59b_245b_4ddb_8fbd_8f5fc6453aaa_Class28 ( obj_f081e361_dd11_41a2_a2d4_3e3935296a02 o )  ) ) ( type_aaa5b59b_245b_4ddb_8fbd_8f5fc6453aaa_Class54 ( obj_f081e361_dd11_41a2_a2d4_3e3935296a02 o )  ) )):named c25))
(assert (! (exists ((o Int)) ( type_aaa5b59b_245b_4ddb_8fbd_8f5fc6453aaa_Class32 ( obj_f081e361_dd11_41a2_a2d4_3e3935296a02 o )  ) ):named c26))
(assert (! (exists ((o Int)) (and ( type_aaa5b59b_245b_4ddb_8fbd_8f5fc6453aaa_Class33 ( obj_f081e361_dd11_41a2_a2d4_3e3935296a02 o )  )  ( type_aaa5b59b_245b_4ddb_8fbd_8f5fc6453aaa_Class15 ( obj_f081e361_dd11_41a2_a2d4_3e3935296a02 o )  ) )):named c27))
(assert (! (exists ((o Int)) ( type_aaa5b59b_245b_4ddb_8fbd_8f5fc6453aaa_Class34 ( obj_f081e361_dd11_41a2_a2d4_3e3935296a02 o )  ) ):named c28))
(assert (! (exists ((o Int)) (and (and (and (and ( type_aaa5b59b_245b_4ddb_8fbd_8f5fc6453aaa_Class35 ( obj_f081e361_dd11_41a2_a2d4_3e3935296a02 o )  )  ( type_aaa5b59b_245b_4ddb_8fbd_8f5fc6453aaa_Class36 ( obj_f081e361_dd11_41a2_a2d4_3e3935296a02 o )  ) ) ( type_aaa5b59b_245b_4ddb_8fbd_8f5fc6453aaa_Class27 ( obj_f081e361_dd11_41a2_a2d4_3e3935296a02 o )  ) ) ( type_aaa5b59b_245b_4ddb_8fbd_8f5fc6453aaa_Class15 ( obj_f081e361_dd11_41a2_a2d4_3e3935296a02 o )  ) ) ( type_aaa5b59b_245b_4ddb_8fbd_8f5fc6453aaa_Class28 ( obj_f081e361_dd11_41a2_a2d4_3e3935296a02 o )  ) )):named c29))
(assert (! (exists ((o Int)) (and (and (and ( type_aaa5b59b_245b_4ddb_8fbd_8f5fc6453aaa_Class36 ( obj_f081e361_dd11_41a2_a2d4_3e3935296a02 o )  )  ( type_aaa5b59b_245b_4ddb_8fbd_8f5fc6453aaa_Class27 ( obj_f081e361_dd11_41a2_a2d4_3e3935296a02 o )  ) ) ( type_aaa5b59b_245b_4ddb_8fbd_8f5fc6453aaa_Class15 ( obj_f081e361_dd11_41a2_a2d4_3e3935296a02 o )  ) ) ( type_aaa5b59b_245b_4ddb_8fbd_8f5fc6453aaa_Class28 ( obj_f081e361_dd11_41a2_a2d4_3e3935296a02 o )  ) )):named c30))
(assert (! (exists ((o Int)) (and ( type_aaa5b59b_245b_4ddb_8fbd_8f5fc6453aaa_Class37 ( obj_f081e361_dd11_41a2_a2d4_3e3935296a02 o )  )  ( type_aaa5b59b_245b_4ddb_8fbd_8f5fc6453aaa_Class15 ( obj_f081e361_dd11_41a2_a2d4_3e3935296a02 o )  ) )):named c31))
(assert (! (exists ((o Int)) (and (and (and (and ( type_aaa5b59b_245b_4ddb_8fbd_8f5fc6453aaa_Class38 ( obj_f081e361_dd11_41a2_a2d4_3e3935296a02 o )  )  ( type_aaa5b59b_245b_4ddb_8fbd_8f5fc6453aaa_Class22 ( obj_f081e361_dd11_41a2_a2d4_3e3935296a02 o )  ) ) ( type_aaa5b59b_245b_4ddb_8fbd_8f5fc6453aaa_Class15 ( obj_f081e361_dd11_41a2_a2d4_3e3935296a02 o )  ) ) ( type_aaa5b59b_245b_4ddb_8fbd_8f5fc6453aaa_Class48 ( obj_f081e361_dd11_41a2_a2d4_3e3935296a02 o )  ) ) ( type_aaa5b59b_245b_4ddb_8fbd_8f5fc6453aaa_Class43 ( obj_f081e361_dd11_41a2_a2d4_3e3935296a02 o )  ) )):named c32))
(assert (! (exists ((o Int)) ( type_aaa5b59b_245b_4ddb_8fbd_8f5fc6453aaa_Class39 ( obj_f081e361_dd11_41a2_a2d4_3e3935296a02 o )  ) ):named c33))
(assert (! (exists ((o Int)) (and (and (and (and (and (and ( type_aaa5b59b_245b_4ddb_8fbd_8f5fc6453aaa_Class4 ( obj_f081e361_dd11_41a2_a2d4_3e3935296a02 o )  )  ( type_aaa5b59b_245b_4ddb_8fbd_8f5fc6453aaa_Class44 ( obj_f081e361_dd11_41a2_a2d4_3e3935296a02 o )  ) ) ( type_aaa5b59b_245b_4ddb_8fbd_8f5fc6453aaa_Class36 ( obj_f081e361_dd11_41a2_a2d4_3e3935296a02 o )  ) ) ( type_aaa5b59b_245b_4ddb_8fbd_8f5fc6453aaa_Class35 ( obj_f081e361_dd11_41a2_a2d4_3e3935296a02 o )  ) ) ( type_aaa5b59b_245b_4ddb_8fbd_8f5fc6453aaa_Class27 ( obj_f081e361_dd11_41a2_a2d4_3e3935296a02 o )  ) ) ( type_aaa5b59b_245b_4ddb_8fbd_8f5fc6453aaa_Class15 ( obj_f081e361_dd11_41a2_a2d4_3e3935296a02 o )  ) ) ( type_aaa5b59b_245b_4ddb_8fbd_8f5fc6453aaa_Class28 ( obj_f081e361_dd11_41a2_a2d4_3e3935296a02 o )  ) )):named c34))
(assert (! (exists ((o Int)) ( type_aaa5b59b_245b_4ddb_8fbd_8f5fc6453aaa_Class40 ( obj_f081e361_dd11_41a2_a2d4_3e3935296a02 o )  ) ):named c35))
(assert (! (exists ((o Int)) ( type_aaa5b59b_245b_4ddb_8fbd_8f5fc6453aaa_Class41 ( obj_f081e361_dd11_41a2_a2d4_3e3935296a02 o )  ) ):named c36))
(assert (! (exists ((o Int)) ( type_aaa5b59b_245b_4ddb_8fbd_8f5fc6453aaa_Class42 ( obj_f081e361_dd11_41a2_a2d4_3e3935296a02 o )  ) ):named c37))
(assert (! (exists ((o Int)) (and ( type_aaa5b59b_245b_4ddb_8fbd_8f5fc6453aaa_Class43 ( obj_f081e361_dd11_41a2_a2d4_3e3935296a02 o )  )  ( type_aaa5b59b_245b_4ddb_8fbd_8f5fc6453aaa_Class15 ( obj_f081e361_dd11_41a2_a2d4_3e3935296a02 o )  ) )):named c38))
(assert (! (exists ((o Int)) (and (and (and (and (and ( type_aaa5b59b_245b_4ddb_8fbd_8f5fc6453aaa_Class44 ( obj_f081e361_dd11_41a2_a2d4_3e3935296a02 o )  )  ( type_aaa5b59b_245b_4ddb_8fbd_8f5fc6453aaa_Class36 ( obj_f081e361_dd11_41a2_a2d4_3e3935296a02 o )  ) ) ( type_aaa5b59b_245b_4ddb_8fbd_8f5fc6453aaa_Class35 ( obj_f081e361_dd11_41a2_a2d4_3e3935296a02 o )  ) ) ( type_aaa5b59b_245b_4ddb_8fbd_8f5fc6453aaa_Class27 ( obj_f081e361_dd11_41a2_a2d4_3e3935296a02 o )  ) ) ( type_aaa5b59b_245b_4ddb_8fbd_8f5fc6453aaa_Class15 ( obj_f081e361_dd11_41a2_a2d4_3e3935296a02 o )  ) ) ( type_aaa5b59b_245b_4ddb_8fbd_8f5fc6453aaa_Class28 ( obj_f081e361_dd11_41a2_a2d4_3e3935296a02 o )  ) )):named c39))
(assert (! (exists ((o Int)) (and (and (and (and (and (and ( type_aaa5b59b_245b_4ddb_8fbd_8f5fc6453aaa_Class45 ( obj_f081e361_dd11_41a2_a2d4_3e3935296a02 o )  )  ( type_aaa5b59b_245b_4ddb_8fbd_8f5fc6453aaa_Class36 ( obj_f081e361_dd11_41a2_a2d4_3e3935296a02 o )  ) ) ( type_aaa5b59b_245b_4ddb_8fbd_8f5fc6453aaa_Class35 ( obj_f081e361_dd11_41a2_a2d4_3e3935296a02 o )  ) ) ( type_aaa5b59b_245b_4ddb_8fbd_8f5fc6453aaa_Class27 ( obj_f081e361_dd11_41a2_a2d4_3e3935296a02 o )  ) ) ( type_aaa5b59b_245b_4ddb_8fbd_8f5fc6453aaa_Class9 ( obj_f081e361_dd11_41a2_a2d4_3e3935296a02 o )  ) ) ( type_aaa5b59b_245b_4ddb_8fbd_8f5fc6453aaa_Class15 ( obj_f081e361_dd11_41a2_a2d4_3e3935296a02 o )  ) ) ( type_aaa5b59b_245b_4ddb_8fbd_8f5fc6453aaa_Class28 ( obj_f081e361_dd11_41a2_a2d4_3e3935296a02 o )  ) )):named c40))
(assert (! (exists ((o Int)) (and (and ( type_aaa5b59b_245b_4ddb_8fbd_8f5fc6453aaa_Class46 ( obj_f081e361_dd11_41a2_a2d4_3e3935296a02 o )  )  ( type_aaa5b59b_245b_4ddb_8fbd_8f5fc6453aaa_Class15 ( obj_f081e361_dd11_41a2_a2d4_3e3935296a02 o )  ) ) ( type_aaa5b59b_245b_4ddb_8fbd_8f5fc6453aaa_Class5 ( obj_f081e361_dd11_41a2_a2d4_3e3935296a02 o )  ) )):named c41))
(assert (! (exists ((o Int)) ( type_aaa5b59b_245b_4ddb_8fbd_8f5fc6453aaa_Class47 ( obj_f081e361_dd11_41a2_a2d4_3e3935296a02 o )  ) ):named c42))
(assert (! (exists ((o Int)) (and ( type_aaa5b59b_245b_4ddb_8fbd_8f5fc6453aaa_Class48 ( obj_f081e361_dd11_41a2_a2d4_3e3935296a02 o )  )  ( type_aaa5b59b_245b_4ddb_8fbd_8f5fc6453aaa_Class15 ( obj_f081e361_dd11_41a2_a2d4_3e3935296a02 o )  ) )):named c43))
(assert (! (exists ((o Int)) ( type_aaa5b59b_245b_4ddb_8fbd_8f5fc6453aaa_Class49 ( obj_f081e361_dd11_41a2_a2d4_3e3935296a02 o )  ) ):named c44))
(assert (! (exists ((o Int)) (and ( type_aaa5b59b_245b_4ddb_8fbd_8f5fc6453aaa_Class5 ( obj_f081e361_dd11_41a2_a2d4_3e3935296a02 o )  )  ( type_aaa5b59b_245b_4ddb_8fbd_8f5fc6453aaa_Class15 ( obj_f081e361_dd11_41a2_a2d4_3e3935296a02 o )  ) )):named c45))
(assert (! (exists ((o Int)) ( type_aaa5b59b_245b_4ddb_8fbd_8f5fc6453aaa_Class50 ( obj_f081e361_dd11_41a2_a2d4_3e3935296a02 o )  ) ):named c46))
(assert (! (exists ((o Int)) ( type_aaa5b59b_245b_4ddb_8fbd_8f5fc6453aaa_Class51 ( obj_f081e361_dd11_41a2_a2d4_3e3935296a02 o )  ) ):named c47))
(assert (! (exists ((o Int)) ( type_aaa5b59b_245b_4ddb_8fbd_8f5fc6453aaa_Class52 ( obj_f081e361_dd11_41a2_a2d4_3e3935296a02 o )  ) ):named c48))
(assert (! (exists ((o Int)) ( type_aaa5b59b_245b_4ddb_8fbd_8f5fc6453aaa_Class53 ( obj_f081e361_dd11_41a2_a2d4_3e3935296a02 o )  ) ):named c49))
(assert (! (exists ((o Int)) (and (and (and (and (and ( type_aaa5b59b_245b_4ddb_8fbd_8f5fc6453aaa_Class54 ( obj_f081e361_dd11_41a2_a2d4_3e3935296a02 o )  )  ( type_aaa5b59b_245b_4ddb_8fbd_8f5fc6453aaa_Class36 ( obj_f081e361_dd11_41a2_a2d4_3e3935296a02 o )  ) ) ( type_aaa5b59b_245b_4ddb_8fbd_8f5fc6453aaa_Class35 ( obj_f081e361_dd11_41a2_a2d4_3e3935296a02 o )  ) ) ( type_aaa5b59b_245b_4ddb_8fbd_8f5fc6453aaa_Class27 ( obj_f081e361_dd11_41a2_a2d4_3e3935296a02 o )  ) ) ( type_aaa5b59b_245b_4ddb_8fbd_8f5fc6453aaa_Class15 ( obj_f081e361_dd11_41a2_a2d4_3e3935296a02 o )  ) ) ( type_aaa5b59b_245b_4ddb_8fbd_8f5fc6453aaa_Class28 ( obj_f081e361_dd11_41a2_a2d4_3e3935296a02 o )  ) )):named c50))
(assert (! (exists ((o Int)) ( type_aaa5b59b_245b_4ddb_8fbd_8f5fc6453aaa_Class55 ( obj_f081e361_dd11_41a2_a2d4_3e3935296a02 o )  ) ):named c51))
(assert (! (exists ((o Int)) ( type_aaa5b59b_245b_4ddb_8fbd_8f5fc6453aaa_Class56 ( obj_f081e361_dd11_41a2_a2d4_3e3935296a02 o )  ) ):named c52))
(assert (! (exists ((o Int)) (and (and (and (and ( type_aaa5b59b_245b_4ddb_8fbd_8f5fc6453aaa_Class6 ( obj_f081e361_dd11_41a2_a2d4_3e3935296a02 o )  )  ( type_aaa5b59b_245b_4ddb_8fbd_8f5fc6453aaa_Class22 ( obj_f081e361_dd11_41a2_a2d4_3e3935296a02 o )  ) ) ( type_aaa5b59b_245b_4ddb_8fbd_8f5fc6453aaa_Class15 ( obj_f081e361_dd11_41a2_a2d4_3e3935296a02 o )  ) ) ( type_aaa5b59b_245b_4ddb_8fbd_8f5fc6453aaa_Class48 ( obj_f081e361_dd11_41a2_a2d4_3e3935296a02 o )  ) ) ( type_aaa5b59b_245b_4ddb_8fbd_8f5fc6453aaa_Class43 ( obj_f081e361_dd11_41a2_a2d4_3e3935296a02 o )  ) )):named c53))
(assert (! (exists ((o Int)) ( type_aaa5b59b_245b_4ddb_8fbd_8f5fc6453aaa_Class7 ( obj_f081e361_dd11_41a2_a2d4_3e3935296a02 o )  ) ):named c54))
(assert (! (exists ((o Int)) ( type_aaa5b59b_245b_4ddb_8fbd_8f5fc6453aaa_Class8 ( obj_f081e361_dd11_41a2_a2d4_3e3935296a02 o )  ) ):named c55))
(assert (! (exists ((o Int)) (and (and (and (and (and ( type_aaa5b59b_245b_4ddb_8fbd_8f5fc6453aaa_Class9 ( obj_f081e361_dd11_41a2_a2d4_3e3935296a02 o )  )  ( type_aaa5b59b_245b_4ddb_8fbd_8f5fc6453aaa_Class36 ( obj_f081e361_dd11_41a2_a2d4_3e3935296a02 o )  ) ) ( type_aaa5b59b_245b_4ddb_8fbd_8f5fc6453aaa_Class35 ( obj_f081e361_dd11_41a2_a2d4_3e3935296a02 o )  ) ) ( type_aaa5b59b_245b_4ddb_8fbd_8f5fc6453aaa_Class27 ( obj_f081e361_dd11_41a2_a2d4_3e3935296a02 o )  ) ) ( type_aaa5b59b_245b_4ddb_8fbd_8f5fc6453aaa_Class15 ( obj_f081e361_dd11_41a2_a2d4_3e3935296a02 o )  ) ) ( type_aaa5b59b_245b_4ddb_8fbd_8f5fc6453aaa_Class28 ( obj_f081e361_dd11_41a2_a2d4_3e3935296a02 o )  ) )):named c56))

 ;end of formula 